; benchmark generated from python API
(set-info :status unknown)
(declare-fun x_month () Int)
(declare-fun x_year () Int)
(declare-fun x_day () Int)
(assert
 (let (($x730 (or (= x_month 4) (= x_month 6) (= x_month 9) (= x_month 11))))
 (let ((?x550 (ite $x730 30 31)))
 (let (($x806 (= (mod x_year 400) 0)))
 (let (($x1160 (= (mod x_year 4) 0)))
 (let ((?x752 (ite (or (and $x1160 (and (distinct (mod x_year 100) 0) true)) $x806) 29 28)))
 (let (($x608 (= x_month 2)))
 (let (($x653 (<= x_day (ite $x608 ?x752 ?x550))))
 (let (($x674 (>= x_day 1)))
 (let (($x606 (<= x_month 2)))
 (let (($x656 (>= x_month 1)))
 (let (($x753 (= x_year 2100)))
 (let (($x518 (<= x_month 12)))
 (let (($x519 (<= x_year 2099)))
 (let (($x807 (>= x_year 1901)))
 (or (and (= x_year 1900) (>= x_month 3) $x518 $x674 $x653) (and $x807 $x519 $x656 $x518 $x674 $x653) (and $x753 $x656 $x606 $x674 $x653)))))))))))))))))
(assert
 (let (($x507 (= x_year 2023)))
 (let (($x923 (and $x507 (or (> x_month 1) (and (= x_month 1) (>= x_day 1))))))
 (or (> x_year 2023) $x923))))
(assert
 (let (($x507 (= x_year 2023)))
 (let (($x565 (and $x507 (or (< x_month 12) (and (= x_month 12) (<= x_day 31))))))
 (or (< x_year 2023) $x565))))
(assert
 (let ((?x926 (+ (mod (- (+ x_month (+ (* 0 12) 0)) 1) 12) 1)))
(let ((?x778 (ite (or (= ?x926 4) (= ?x926 6) (= ?x926 9) (= ?x926 11)) 30 31)))
(let ((?x757 (+ 0 (div (- (+ x_month (+ (* 0 12) 0)) 1) 12))))
(let ((?x1084 (+ x_year ?x757)))
(let (($x1058 (or (and (= (mod ?x1084 4) 0) (and (distinct (mod ?x1084 100) 0) true)) (= (mod ?x1084 400) 0))))
(let ((?x401 (ite (= ?x926 2) (ite $x1058 29 28) ?x778)))
(let (($x722 (< x_day 1)))
(let ((?x866 (ite $x722 1 (ite (> x_day ?x401) ?x401 x_day))))
(let ((?x960 (ite (< ?x866 1) 1 (ite (> ?x866 ?x401) ?x401 ?x866))))
(let ((?x711 (ite (= 2 ?x926) (ite $x1058 31 31) (ite (= 1 ?x926) (ite $x1058 0 0) 0))))
(let ((?x465 (ite (= 4 ?x926) (ite $x1058 91 90) (ite (= 3 ?x926) (ite $x1058 60 59) ?x711))))
(let ((?x1178 (ite (= 6 ?x926) (ite $x1058 152 151) (ite (= 5 ?x926) (ite $x1058 121 120) ?x465))))
(let ((?x1163 (ite (= 8 ?x926) (ite $x1058 213 212) (ite (= 7 ?x926) (ite $x1058 182 181) ?x1178))))
(let ((?x1007 (ite (= 10 ?x926) (ite $x1058 274 273) (ite (= 9 ?x926) (ite $x1058 244 243) ?x1163))))
(let ((?x1030 (ite (= 12 ?x926) (ite $x1058 335 334) (ite (= 11 ?x926) (ite $x1058 305 304) ?x1007))))
(let ((?x700 (- (+ (* 365 (- ?x1084 1)) (div (- ?x1084 1) 4)) (div (- ?x1084 1) 100))))
(let ((?x956 (- (+ (+ (+ ?x700 (div (- ?x1084 1) 400)) ?x1030) (- ?x960 1)) 730179)))
(let ((?x689 (+ (+ ?x956 61) 730179)))
(let ((?x1063 (mod ?x689 146097)))
(let ((?x1064 (div ?x1063 36524)))
(let ((?x1092 (ite (<= 4 ?x1064) 3 ?x1064)))
(let ((?x1069 (- ?x1063 (* ?x1092 36524))))
(let ((?x924 (mod ?x1069 1461)))
(let ((?x1107 (div ?x924 365)))
(let ((?x908 (ite (<= 4 ?x1107) 3 ?x1107)))
(let ((?x917 (+ (+ (* (div ?x689 146097) 400) (* ?x1092 100)) (* (div ?x1069 1461) 4))))
(let ((?x959 (+ (+ ?x917 ?x908) 1)))
(let (($x1144 (or (and (= (mod ?x959 4) 0) (and (distinct (mod ?x959 100) 0) true)) (= (mod ?x959 400) 0))))
(let ((?x480 (- ?x924 (* ?x908 365))))
(let ((?x867 (ite $x1144 31 31)))
(let (($x871 (>= ?x480 ?x867)))
(let ((?x851 (ite $x871 (+ (- ?x480 ?x867) 1) (+ (- ?x480 (ite $x1144 0 0)) 1))))
(let ((?x830 (ite $x1144 60 59)))
(let (($x902 (>= ?x480 ?x830)))
(let ((?x864 (ite $x1144 91 90)))
(let (($x892 (>= ?x480 ?x864)))
(let ((?x843 (ite $x892 (+ (- ?x480 ?x864) 1) (ite $x902 (+ (- ?x480 ?x830) 1) ?x851))))
(let ((?x474 (ite $x1144 121 120)))
(let (($x410 (>= ?x480 ?x474)))
(let ((?x402 (ite $x1144 152 151)))
(let (($x783 (>= ?x480 ?x402)))
(let ((?x658 (ite $x783 (+ (- ?x480 ?x402) 1) (ite $x410 (+ (- ?x480 ?x474) 1) ?x843))))
(let ((?x446 (ite $x1144 182 181)))
(let (($x880 (>= ?x480 ?x446)))
(let ((?x865 (ite $x1144 213 212)))
(let (($x737 (>= ?x480 ?x865)))
(let ((?x614 (ite $x737 (+ (- ?x480 ?x865) 1) (ite $x880 (+ (- ?x480 ?x446) 1) ?x658))))
(let ((?x869 (ite $x1144 244 243)))
(let (($x743 (>= ?x480 ?x869)))
(let ((?x868 (ite $x1144 274 273)))
(let (($x720 (>= ?x480 ?x868)))
(let ((?x796 (ite $x720 (+ (- ?x480 ?x868) 1) (ite $x743 (+ (- ?x480 ?x869) 1) ?x614))))
(let ((?x886 (ite $x1144 305 304)))
(let (($x745 (>= ?x480 ?x886)))
(let ((?x889 (ite $x1144 335 334)))
(let (($x805 (>= ?x480 ?x889)))
(let ((?x564 (ite $x805 (+ (- ?x480 ?x889) 1) (ite $x745 (+ (- ?x480 ?x886) 1) ?x796))))
(let (($x665 (= 0 61)))
(let ((?x1034 (+ (mod (- (+ x_month (+ (* 0 12) 2)) 1) 12) 1)))
(let ((?x1123 (ite (or (= ?x1034 4) (= ?x1034 6) (= ?x1034 9) (= ?x1034 11)) 30 31)))
(let ((?x940 (+ 0 (div (- (+ x_month (+ (* 0 12) 2)) 1) 12))))
(let ((?x1082 (+ x_year ?x940)))
(let (($x1119 (or (and (= (mod ?x1082 4) 0) (and (distinct (mod ?x1082 100) 0) true)) (= (mod ?x1082 400) 0))))
(let ((?x489 (ite (= ?x1034 2) (ite $x1119 29 28) ?x1123)))
(let ((?x1151 (ite $x722 1 (ite (> x_day ?x489) ?x489 x_day))))
(let ((?x884 (ite (< ?x1151 1) 1 (ite (> ?x1151 ?x489) ?x489 ?x1151))))
(let ((?x998 (ite (= 2 ?x1034) (ite $x1119 31 31) (ite (= 1 ?x1034) (ite $x1119 0 0) 0))))
(let ((?x1150 (ite (= 4 ?x1034) (ite $x1119 91 90) (ite (= 3 ?x1034) (ite $x1119 60 59) ?x998))))
(let ((?x918 (ite (= 6 ?x1034) (ite $x1119 152 151) (ite (= 5 ?x1034) (ite $x1119 121 120) ?x1150))))
(let ((?x975 (ite (= 8 ?x1034) (ite $x1119 213 212) (ite (= 7 ?x1034) (ite $x1119 182 181) ?x918))))
(let ((?x468 (ite (= 10 ?x1034) (ite $x1119 274 273) (ite (= 9 ?x1034) (ite $x1119 244 243) ?x975))))
(let ((?x713 (ite (= 12 ?x1034) (ite $x1119 335 334) (ite (= 11 ?x1034) (ite $x1119 305 304) ?x468))))
(let ((?x913 (- (+ (* 365 (- ?x1082 1)) (div (- ?x1082 1) 4)) (div (- ?x1082 1) 100))))
(let ((?x976 (- (+ (+ (+ ?x913 (div (- ?x1082 1) 400)) ?x713) (- ?x884 1)) 730179)))
(let ((?x443 (+ (+ ?x976 0) 730179)))
(let ((?x978 (mod ?x443 146097)))
(let ((?x657 (div ?x978 36524)))
(let ((?x977 (ite (<= 4 ?x657) 3 ?x657)))
(let ((?x1105 (- ?x978 (* ?x977 36524))))
(let ((?x761 (mod ?x1105 1461)))
(let ((?x512 (div ?x761 365)))
(let ((?x782 (ite (<= 4 ?x512) 3 ?x512)))
(let ((?x618 (+ (+ (* (div ?x443 146097) 400) (* ?x977 100)) (* (div ?x1105 1461) 4))))
(let ((?x667 (+ (+ ?x618 ?x782) 1)))
(let (($x1045 (or (and (= (mod ?x667 4) 0) (and (distinct (mod ?x667 100) 0) true)) (= (mod ?x667 400) 0))))
(let ((?x779 (- ?x761 (* ?x782 365))))
(let ((?x505 (ite $x1045 31 31)))
(let (($x1179 (>= ?x779 ?x505)))
(let ((?x707 (ite $x1179 (+ (- ?x779 ?x505) 1) (+ (- ?x779 (ite $x1045 0 0)) 1))))
(let ((?x627 (ite $x1045 60 59)))
(let (($x1041 (>= ?x779 ?x627)))
(let ((?x412 (ite $x1045 91 90)))
(let (($x1191 (>= ?x779 ?x412)))
(let ((?x955 (ite $x1191 (+ (- ?x779 ?x412) 1) (ite $x1041 (+ (- ?x779 ?x627) 1) ?x707))))
(let ((?x1166 (ite $x1045 121 120)))
(let (($x435 (>= ?x779 ?x1166)))
(let ((?x545 (ite $x1045 152 151)))
(let (($x729 (>= ?x779 ?x545)))
(let ((?x987 (ite $x729 (+ (- ?x779 ?x545) 1) (ite $x435 (+ (- ?x779 ?x1166) 1) ?x955))))
(let ((?x929 (ite $x1045 182 181)))
(let (($x898 (>= ?x779 ?x929)))
(let ((?x472 (ite $x1045 213 212)))
(let (($x517 (>= ?x779 ?x472)))
(let ((?x599 (ite $x517 (+ (- ?x779 ?x472) 1) (ite $x898 (+ (- ?x779 ?x929) 1) ?x987))))
(let ((?x621 (ite $x1045 244 243)))
(let (($x684 (>= ?x779 ?x621)))
(let ((?x909 (ite $x1045 274 273)))
(let (($x1108 (>= ?x779 ?x909)))
(let ((?x823 (ite $x1108 (+ (- ?x779 ?x909) 1) (ite $x684 (+ (- ?x779 ?x621) 1) ?x599))))
(let ((?x818 (ite $x1045 305 304)))
(let (($x1193 (>= ?x779 ?x818)))
(let ((?x1010 (ite $x1045 335 334)))
(let (($x1033 (>= ?x779 ?x1010)))
(let ((?x825 (ite $x1033 (+ (- ?x779 ?x1010) 1) (ite $x1193 (+ (- ?x779 ?x818) 1) ?x823))))
(let (($x1078 (= 0 0)))
(let ((?x794 (ite $x410 5 (ite $x892 4 (ite $x902 3 (ite $x871 2 1))))))
(let ((?x946 (ite $x743 9 (ite $x737 8 (ite $x880 7 (ite $x783 6 ?x794))))))
(let ((?x816 (ite $x805 12 (ite $x745 11 (ite $x720 10 ?x946)))))
(let ((?x1015 (ite $x435 5 (ite $x1191 4 (ite $x1041 3 (ite $x1179 2 1))))))
(let ((?x1157 (ite $x684 9 (ite $x517 8 (ite $x898 7 (ite $x729 6 ?x1015))))))
(let (($x664 (= (ite $x1078 ?x1034 (ite $x1033 12 (ite $x1193 11 (ite $x1108 10 ?x1157)))) (ite $x665 ?x926 ?x816))))
(and (= (ite $x1078 ?x1082 ?x667) (ite $x665 ?x1084 ?x959)) $x664 (= (ite $x1078 ?x884 ?x825) (ite $x665 ?x960 ?x564)))))))))))))))))))))))))))))))))))))))))))))))))))))))))))))))))))))))))))))))))))))))))))))))))))))))))))))))))))))))))))))
(check-sat)
